objective value:                     65.9999999999999
lambda[0,18]*                                       1 	(obj:66)
lambda[0,25]*                                       1 	(obj:0)
lambda[0,29]*                                       1 	(obj:0)
lambda[1,32]*                                      10 	(obj:0)
lambda[0,32]*                                       4 	(obj:0)
lambda[0,33]*                                       2 	(obj:0)
lambda[0,34]*                                       1 	(obj:0)
